p edge 23 71
e 1 2 4
e 1 4 10
e 1 7 1
e 1 9 5
e 1 13 1
e 1 15 5
e 1 18 9
e 1 20 7
e 2 3 5
e 2 6 8
e 2 8 4
e 2 12 3
e 2 14 2
e 2 17 9
e 2 19 2
e 3 5 2
e 3 7 5
e 3 10 8
e 3 13 8
e 3 16 8
e 3 18 5
e 3 21 7
e 4 5 7
e 4 6 8
e 4 10 1
e 4 12 7
e 4 16 2
e 4 17 5
e 4 21 1
e 5 8 6
e 5 9 7
e 5 14 2
e 5 15 9
e 5 19 9
e 5 20 7
e 6 11 6
e 6 13 3
e 6 15 10
e 6 22 8
e 7 11 3
e 7 12 1
e 7 14 9
e 7 22 2
e 8 11 10
e 8 13 5
e 8 16 8
e 8 22 2
e 9 11 3
e 9 12 2
e 9 16 7
e 9 22 3
e 10 11 2
e 10 14 2
e 10 15 1
e 10 22 7
e 11 17 6
e 11 18 10
e 11 19 3
e 11 20 10
e 11 21 9
e 12 23 2
e 13 23 8
e 14 23 5
e 15 23 4
e 16 23 8
e 17 23 5
e 18 23 8
e 19 23 5
e 20 23 2
e 21 23 9
e 22 23 4